NAME: xqf131
COMMENT: Tour length 868.6086903033186
TYPE: TOUR
DIMENSION: 131
TOUR_SECTION
30
9
28
29
23
22
21
20
19
18
17
16
15
14
13
12
4
5
6
7
2
1
0
11
43
42
41
40
39
38
37
36
35
34
33
32
24
25
26
27
8
3
10
31
44
45
46
47
48
49
50
51
75
68
69
55
56
57
58
59
60
52
53
54
63
61
73
71
72
70
64
65
66
62
74
67
76
77
78
79
80
81
82
83
84
85
93
91
89
94
96
103
102
110
120
117
99
121
105
106
111
129
108
116
104
122
109
97
124
126
115
114
119
113
125
118
112
101
100
128
107
92
123
86
88
127
98
130
95
87
90
-1
EOF